p cnf 363 528
14 1 -74 100 0
14 1 -74 -100 0
-38 -58 46 101 0
-38 -58 46 -101 0
48 -67 49 102 0
48 -67 49 -102 0
2 -20 -85 103 0
2 -20 -85 -103 0
81 64 -46 104 0
81 64 -46 -104 0
72 80 12 105 0
72 80 12 -105 0
53 78 11 106 0
53 78 11 -106 0
-97 -43 33 107 0
-97 -43 33 -107 0
89 -66 -53 108 0
89 -66 -53 -108 0
-92 -55 -27 109 0
-92 -55 -27 -109 0
5 87 -81 110 0
5 87 -81 -110 0
48 93 8 111 0
48 93 8 -111 0
77 5 24 112 0
77 5 24 -112 0
17 -71 50 113 0
17 -71 50 -113 0
40 33 69 114 0
40 33 69 -114 0
70 86 34 115 0
70 86 34 -115 0
90 -72 42 116 0
90 -72 42 -116 0
-54 -15 43 117 0
-54 -15 43 -117 0
-38 -91 27 118 0
-38 -91 27 -118 0
-11 -78 53 119 0
-11 -78 53 -119 0
23 -74 95 120 0
23 -74 95 -120 0
-79 2 75 121 0
-79 2 75 -121 0
-35 -59 80 122 0
-35 -59 80 -122 0
-46 -64 -81 123 0
-46 -64 -81 -123 0
-95 57 28 124 0
-95 57 28 -124 0
-78 -93 75 125 0
-78 -93 75 -125 0
-19 -90 -4 126 0
-19 -90 -4 -126 0
-9 12 -89 127 0
-9 12 -89 -127 0
67 -48 49 128 0
67 -48 49 -128 0
31 -88 18 129 0
31 -88 18 -129 0
21 -94 55 130 0
21 -94 55 -130 0
42 63 22 131 0
42 63 22 -131 0
35 80 59 132 0
35 80 59 -132 0
13 -11 -76 133 0
13 -11 -76 -133 0
46 38 58 134 0
46 38 58 -134 0
45 -37 23 135 0
45 -37 23 -135 0
52 -82 7 136 0
52 -82 7 -136 0
-66 14 34 137 0
-66 14 34 -137 0
-8 -96 -61 138 0
-8 -96 -61 -138 0
-21 -55 -94 139 0
-21 -55 -94 -139 0
-10 47 -24 140 0
-10 47 -24 -140 0
-12 9 -89 141 0
-12 9 -89 -141 0
-30 73 50 142 0
-30 73 50 -142 0
-14 -1 -74 143 0
-14 -1 -74 -143 0
81 -64 46 144 0
81 -64 46 -144 0
35 25 6 145 0
35 25 6 -145 0
-32 -16 28 146 0
-32 -16 28 -146 0
79 2 -75 147 0
79 2 -75 -147 0
-64 99 -71 148 0
-64 99 -71 -148 0
-90 -42 -72 149 0
-90 -42 -72 -149 0
87 19 52 150 0
87 19 52 -150 0
51 -68 37 151 0
51 -68 37 -151 0
-28 -32 16 152 0
-28 -32 16 -152 0
67 -49 48 153 0
67 -49 48 -153 0
78 -11 -53 154 0
78 -11 -53 -154 0
3 -65 -99 155 0
3 -65 -99 -155 0
-36 -22 -31 156 0
-36 -22 -31 -156 0
57 85 -92 157 0
57 85 -92 -157 0
-55 92 27 158 0
-55 92 27 -158 0
56 49 -65 159 0
56 49 -65 -159 0
51 97 -6 160 0
51 97 -6 -160 0
91 -38 -27 161 0
91 -38 -27 -161 0
16 39 9 162 0
16 39 9 -162 0
-23 45 37 163 0
-23 45 37 -163 0
6 51 -97 164 0
6 51 -97 -164 0
43 54 15 165 0
43 54 15 -165 0
89 -9 -12 166 0
89 -9 -12 -166 0
25 98 84 167 0
25 98 84 -167 0
-63 -67 41 168 0
-63 -67 41 -168 0
-87 81 5 169 0
-87 81 5 -169 0
10 47 24 170 0
10 47 24 -170 0
63 -41 -67 171 0
63 -41 -67 -171 0
-13 -94 82 172 0
-13 -94 82 -172 0
78 75 93 173 0
78 75 93 -173 0
33 -69 -40 174 0
33 -69 -40 -174 0
6 97 -51 175 0
6 97 -51 -175 0
60 -26 44 176 0
60 -26 44 -176 0
-51 -6 -97 177 0
-51 -6 -97 -177 0
60 62 79 178 0
60 62 79 -178 0
-16 -9 39 179 0
-16 -9 39 -179 0
40 47 -41 180 0
40 47 -41 -180 0
30 50 -73 181 0
30 50 -73 -181 0
76 11 13 182 0
76 11 13 -182 0
-65 99 -3 183 0
-65 99 -3 -183 0
-79 -75 -2 184 0
-79 -75 -2 -184 0
-18 31 88 185 0
-18 31 88 -185 0
8 61 -96 186 0
8 61 -96 -186 0
-2 20 -85 187 0
-2 20 -85 -187 0
-5 81 87 188 0
-5 81 87 -188 0
21 -62 36 189 0
21 -62 36 -189 0
82 94 13 190 0
82 94 13 -190 0
77 3 73 191 0
77 3 73 -191 0
-53 11 -78 192 0
-53 11 -78 -192 0
91 -20 98 193 0
91 -20 98 -193 0
-23 74 95 194 0
-23 74 95 -194 0
86 -44 -59 195 0
86 -44 -59 -195 0
16 32 28 196 0
16 32 28 -196 0
-4 -76 -10 197 0
-4 -76 -10 -197 0
-60 -44 -26 198 0
-60 -44 -26 -198 0
52 -7 82 199 0
52 -7 82 -199 0
67 -41 -63 200 0
67 -41 -63 -200 0
-49 -48 -67 201 0
-49 -48 -67 -201 0
-87 -81 -5 202 0
-87 -81 -5 -202 0
-34 66 14 203 0
-34 66 14 -203 0
-45 37 23 204 0
-45 37 23 -204 0
-14 74 1 205 0
-14 74 1 -205 0
64 -81 46 206 0
64 -81 46 -206 0
84 -98 -25 207 0
84 -98 -25 -207 0
-60 44 26 208 0
-60 44 26 -208 0
-19 52 -87 209 0
-19 52 -87 -209 0
-13 76 -11 210 0
-13 76 -11 -210 0
72 -42 90 211 0
72 -42 90 -211 0
-1 14 74 212 0
-1 14 74 -212 0
-14 34 66 213 0
-14 34 66 -213 0
-58 29 88 214 0
-58 29 88 -214 0
30 54 84 215 0
30 54 84 -215 0
-8 96 61 216 0
-8 96 61 -216 0
3 99 65 217 0
3 99 65 -217 0
-97 -33 43 218 0
-97 -33 43 -218 0
-52 -7 -82 219 0
-52 -7 -82 -219 0
-17 50 71 220 0
-17 50 71 -220 0
-34 70 -86 221 0
-34 70 -86 -221 0
-85 92 57 222 0
-85 92 57 -222 0
-26 -61 -32 223 0
-26 -61 -32 -223 0
-99 65 -3 224 0
-99 65 -3 -224 0
-95 -57 -28 225 0
-95 -57 -28 -225 0
-37 -68 -51 226 0
-37 -68 -51 -226 0
-13 94 -82 227 0
-13 94 -82 -227 0
-35 59 -80 228 0
-35 59 -80 -228 0
82 -52 7 229 0
82 -52 7 -229 0
20 -98 91 230 0
20 -98 91 -230 0
-34 86 -70 231 0
-34 86 -70 -231 0
12 -72 -80 232 0
12 -72 -80 -232 0
1 -96 15 233 0
1 -96 15 -233 0
94 -55 21 234 0
94 -55 21 -234 0
53 -89 -66 235 0
53 -89 -66 -235 0
-84 -98 25 236 0
-84 -98 25 -236 0
6 -25 -35 237 0
6 -25 -35 -237 0
58 -38 -46 238 0
58 -38 -46 -238 0
27 -92 55 239 0
27 -92 55 -239 0
-29 -39 68 240 0
-29 -39 68 -240 0
29 -39 -68 241 0
29 -39 -68 -241 0
-20 -98 -91 242 0
-20 -98 -91 -242 0
24 -77 -5 243 0
24 -77 -5 -243 0
-16 9 -39 244 0
-16 9 -39 -244 0
-7 -83 -18 245 0
-7 -83 -18 -245 0
87 -52 -19 246 0
87 -52 -19 -246 0
62 -60 -79 247 0
62 -60 -79 -247 0
61 -32 26 248 0
61 -32 26 -248 0
68 39 29 249 0
68 39 29 -249 0
19 -52 -87 250 0
19 -52 -87 -250 0
26 -61 32 251 0
26 -61 32 -251 0
-47 -24 10 252 0
-47 -24 10 -252 0
18 83 -7 253 0
18 83 -7 -253 0
51 -37 68 254 0
51 -37 68 -254 0
-72 80 -12 255 0
-72 80 -12 -255 0
-88 -31 -18 256 0
-88 -31 -18 -256 0
12 89 9 257 0
12 89 9 -257 0
69 -33 -40 258 0
69 -33 -40 -258 0
-80 72 -12 259 0
-80 72 -12 -259 0
31 -22 36 260 0
31 -22 36 -260 0
-43 -33 97 261 0
-43 -33 97 -261 0
-13 -76 11 262 0
-13 -76 11 -262 0
83 56 70 263 0
83 56 70 -263 0
66 53 89 264 0
66 53 89 -264 0
20 85 2 265 0
20 85 2 -265 0
-88 29 58 266 0
-88 29 58 -266 0
79 -2 75 267 0
79 -2 75 -267 0
-29 88 58 268 0
-29 88 58 -268 0
7 -83 18 269 0
7 -83 18 -269 0
-6 25 -35 270 0
-6 25 -35 -270 0
43 33 97 271 0
43 33 97 -271 0
-68 -29 39 272 0
-68 -29 39 -272 0
59 -44 -86 273 0
59 -44 -86 -273 0
64 99 71 274 0
64 99 71 -274 0
-34 -14 -66 275 0
-34 -14 -66 -275 0
1 96 -15 276 0
1 96 -15 -276 0
-58 38 -46 277 0
-58 38 -46 -277 0
-30 54 -84 278 0
-30 54 -84 -278 0
65 56 -49 279 0
65 56 -49 -279 0
83 -56 -70 280 0
83 -56 -70 -280 0
-36 21 62 281 0
-36 21 62 -281 0
69 -17 45 282 0
69 -17 45 -282 0
-5 -24 77 283 0
-5 -24 77 -283 0
-91 38 -27 284 0
-91 38 -27 -284 0
40 -33 -69 285 0
40 -33 -69 -285 0
22 31 -36 286 0
22 31 -36 -286 0
-71 -99 64 287 0
-71 -99 64 -287 0
-42 -22 63 288 0
-42 -22 63 -288 0
69 17 -45 289 0
69 17 -45 -289 0
37 -51 68 290 0
37 -51 68 -290 0
-47 -41 -40 291 0
-47 -41 -40 -291 0
-30 -73 -50 292 0
-30 -73 -50 -292 0
44 86 59 293 0
44 86 59 -293 0
-71 -50 -17 294 0
-71 -50 -17 -294 0
-57 -92 -85 295 0
-57 -92 -85 -295 0
83 -18 7 296 0
83 -18 7 -296 0
96 15 -1 297 0
96 15 -1 -297 0
34 -70 -86 298 0
34 -70 -86 -298 0
-31 18 88 299 0
-31 18 88 -299 0
-45 -69 -17 300 0
-45 -69 -17 -300 0
-21 -36 -62 301 0
-21 -36 -62 -301 0
-70 -83 56 302 0
-70 -83 56 -302 0
-96 -1 -15 303 0
-96 -1 -15 -303 0
4 19 -90 304 0
4 19 -90 -304 0
-10 76 4 305 0
-10 76 4 -305 0
-53 -89 66 306 0
-53 -89 66 -306 0
-93 8 -48 307 0
-93 8 -48 -307 0
3 -73 -77 308 0
3 -73 -77 -308 0
71 -64 -99 309 0
71 -64 -99 -309 0
98 -91 20 310 0
98 -91 20 -310 0
-37 -23 -45 311 0
-37 -23 -45 -311 0
49 65 -56 312 0
49 65 -56 -312 0
-95 -74 -23 313 0
-95 -74 -23 -313 0
73 -3 -77 314 0
73 -3 -77 -314 0
-84 98 -25 315 0
-84 98 -25 -315 0
-69 45 17 316 0
-69 45 17 -316 0
-86 -59 44 317 0
-86 -59 44 -317 0
10 76 -4 318 0
10 76 -4 -318 0
-63 -22 42 319 0
-63 -22 42 -319 0
-19 4 90 320 0
-19 4 90 -320 0
-25 35 -6 321 0
-25 35 -6 -321 0
-47 -10 24 322 0
-47 -10 24 -322 0
-42 22 -63 323 0
-42 22 -63 -323 0
-27 55 92 324 0
-27 55 92 -324 0
-62 79 -60 325 0
-62 79 -60 -325 0
-30 -54 84 326 0
-30 -54 84 -326 0
-40 47 41 327 0
-40 47 41 -327 0
19 90 -4 328 0
19 90 -4 -328 0
-61 96 8 329 0
-61 96 8 -329 0
-48 93 -8 330 0
-48 93 -8 -330 0
92 85 -57 331 0
92 85 -57 -331 0
-24 -77 5 332 0
-24 -77 5 -332 0
-21 36 62 333 0
-21 36 62 -333 0
-59 35 -80 334 0
-59 35 -80 -334 0
57 -28 95 335 0
57 -28 95 -335 0
-75 -93 78 336 0
-75 -93 78 -336 0
22 36 -31 337 0
22 36 -31 -337 0
41 40 -47 338 0
41 40 -47 -338 0
13 -94 -82 339 0
13 -94 -82 -339 0
55 94 -21 340 0
55 94 -21 -340 0
15 -43 -54 341 0
15 -43 -54 -341 0
-29 -58 -88 342 0
-29 -58 -88 -342 0
60 26 -44 343 0
60 26 -44 -343 0
-54 30 -84 344 0
-54 30 -84 -344 0
-65 -49 -56 345 0
-65 -49 -56 -345 0
-78 93 -75 346 0
-78 93 -75 -346 0
-15 -43 54 347 0
-15 -43 54 -347 0
-83 70 -56 348 0
-83 70 -56 -348 0
-50 30 73 349 0
-50 30 73 -349 0
38 27 91 350 0
38 27 91 -350 0
-2 85 -20 351 0
-2 85 -20 -351 0
67 41 63 352 0
67 41 63 -352 0
17 71 -50 353 0
17 71 -50 -353 0
60 -62 -79 354 0
60 -62 -79 -354 0
-95 23 74 355 0
-95 23 74 -355 0
4 -76 10 356 0
4 -76 10 -356 0
16 -9 -39 357 0
16 -9 -39 -357 0
72 -90 42 358 0
72 -90 42 -358 0
77 -73 -3 359 0
77 -73 -3 -359 0
-28 32 -16 360 0
-28 32 -16 -360 0
-57 95 28 361 0
-57 95 28 -361 0
-26 61 32 362 0
-26 61 32 -362 0
-8 48 -93 363 0
-8 48 -93 -363 0

